SCIP Status        : solving was interrupted [time limit reached]
Total Time         :    3600.33
  solving          :    3600.33
  presolving       :       0.06 (included in solving)
  reading          :       0.00
  copying          :       0.44 (81 #copies) (minimal 0.00, maximal 0.04, average 0.01)
Original Problem   :
  Problem name     : waterno2_06
  Variables        : 996 (0 binary, 54 integer, 0 implicit integer, 942 continuous)
  Constraints      : 1234 initial, 1234 maximal
  Objective        : minimize, 54 non-zeros (abs.min = 1, abs.max = 1)
Presolved Problem  :
  Problem name     : t_waterno2_06
  Variables        : 1468 (54 binary, 0 integer, 0 implicit integer, 1414 continuous)
  Constraints      : 938 initial, 986 maximal
  Objective        : minimize, 54 non-zeros (abs.min = 1, abs.max = 1)
  Nonzeros         : 2721 constraint, 90 clique table
Presolvers         :   ExecTime  SetupTime  Calls  FixedVars   AggrVars   ChgTypes  ChgBounds   AddHoles    DelCons    AddCons   ChgSides   ChgCoefs
  boundshift       :       0.00       0.00      0          0          0          0          0          0          0          0          0          0
  convertinttobin  :       0.00       0.00      0          0          0          0          0          0          0          0          0          0
  domcol           :       0.00       0.00      1          0          0          0          0          0          0          0          0          0
  dualagg          :       0.00       0.00      0          0          0          0          0          0          0          0          0          0
  dualcomp         :       0.00       0.00      1          0          0          0          0          0          0          0          0          0
  dualinfer        :       0.00       0.00      0          0          0          0          0          0          0          0          0          0
  dualsparsify     :       0.00       0.00      1          0          0          0          0          0          0          0          0          0
  gateextraction   :       0.00       0.00      0          0          0          0          0          0          0          0          0          0
  implics          :       0.00       0.00      3          0          0          0          0          0          0          0          0          0
  inttobinary      :       0.00       0.00      0          0          0          0          0          0          0          0          0          0
  qpkktref         :       0.00       0.00      0          0          0          0          0          0          0          0          0          0
  redvub           :       0.00       0.00      0          0          0          0          0          0          0          0          0          0
  sparsify         :       0.00       0.00      1          0          0          0          0          0          0          0          0          0
  stuffing         :       0.00       0.00      0          0          0          0          0          0          0          0          0          0
  trivial          :       0.00       0.00      6          9          0          0          0          0          0          0          0          0
  tworowbnd        :       0.00       0.00      0          0          0          0          0          0          0          0          0          0
  dualfix          :       0.00       0.00      6          6          0          0          0          0          0          0          0          0
  genvbounds       :       0.00       0.00      0          0          0          0          0          0          0          0          0          0
  probing          :       0.02       0.00      1          0          0          0          1          0          0          0          0          0
  pseudoobj        :       0.00       0.00      0          0          0          0          0          0          0          0          0          0
  symmetry         :       0.00       0.00      1          0          0          0          0          0          0          0          0          0
  vbounds          :       0.00       0.00      1          0          0          0          0          0          0          0          0          0
  varbound         :       0.00       0.00      2          0          0          0          0          0          0          0          0          0
  setppc           :       0.00       0.00      3          0          0          0          0          0          0          0          0          0
  linear           :       0.01       0.00      9          9        284          0        539          0        296          0        195        194
  logicor          :       0.00       0.00      0          0          0          0          0          0          0          0          0          0
  bounddisjunction :       0.00       0.00      0          0          0          0          0          0          0          0          0          0
  nonlinear        :       0.03       0.01     10          0          0          0        451          0          0          0          0       -194
  benders          :       0.00       0.00      0          0          0          0          0          0          0          0          0          0
  components       :       0.00       0.00      1          0          0          0          0          0          0          0          0          0
  root node        :          -          -      -          1          -          -        863          -          -          -          -          -
Constraints        :     Number  MaxNumber  #Separate #Propagate    #EnfoLP    #EnfoRelax  #EnfoPS    #Check   #ResProp    Cutoffs    DomReds       Cuts    Applied      Conss   Children
  benderslp        :          0          0          0          0     239731          0          0     166522          0          0          0          0          0          0          0
  integral         :          0          0          0          0     239731          0          0     166522          0          0      68553          0          0         78     185504
  varbound         :        186        186         72     951130          0          0          0     166517       3553        149     201398          0          0          0          0
  setppc           :         30+        32         72     950884          0          0          0     118623        579          2      16913          0          0          0          0
  linear           :        332+       340         72     950979          0          0          0     118623       2265       1403    1394327          4          0          0          0
  logicor          :          0+         3         72        730          0          0          0          0          1          0          7          0          0          0          0
  bounddisjunction :          0+        49          0     178887          0          0          0          0         45          1      11556          0          0          0          0
  nonlinear        :        390        390     852220     949575     144092          0          0     113948          0       4821    5759471   10113519    7249662          0     118696
  benders          :          0          0          0          0          0          0          0         25          0          0          0          0          0          0          0
  countsols        :          0          0          0          0          0          0          0         25          0          0          0          0          0          0          0
  components       :          0          0          0          0          0          0          0          0          0          0          0          0          0          0          0
Constraint Timings :  TotalTime  SetupTime   Separate  Propagate     EnfoLP     EnfoPS     EnfoRelax   Check    ResProp    SB-Prop
  benderslp        :       0.12       0.00       0.00       0.00       0.10       0.00       0.00       0.02       0.00       0.00
  integral         :      16.04       0.00       0.00       0.00      16.00       0.00       0.00       0.04       0.00       0.00
  varbound         :       4.29       0.00       0.00       2.02       0.00       0.00       0.00       2.22       0.00       0.05
  setppc           :       0.39       0.00       0.00       0.27       0.00       0.00       0.00       0.10       0.00       0.02
  linear           :      10.52       0.00       0.01       9.44       0.00       0.00       0.00       0.92       0.01       0.15
  logicor          :       0.00       0.00       0.00       0.00       0.00       0.00       0.00       0.00       0.00       0.00
  bounddisjunction :       0.62       0.00       0.00       0.62       0.00       0.00       0.00       0.00       0.00       0.00
  nonlinear        :     646.54       0.01     524.41      45.95      60.23       0.00       0.00      15.20       0.00       0.75
  benders          :       0.00       0.00       0.00       0.00       0.00       0.00       0.00       0.00       0.00       0.00
  countsols        :       0.00       0.00       0.00       0.00       0.00       0.00       0.00       0.00       0.00       0.00
  components       :       0.11       0.00       0.00       0.11       0.00       0.00       0.00       0.00       0.00       0.00
Propagators        : #Propagate   #ResProp    Cutoffs    DomReds
  dualfix          :         11          0          0          0
  genvbounds       :     267614       3040          0     187888
  nlobbt           :          0          0          0          0
  obbt             :          5          0          0         10
  probing          :          0          0          0          0
  pseudoobj        :    1009618          0          0       4277
  redcost          :    1266828          0          0       1868
  rootredcost      :          4          0          0          0
  symmetry         :          0          0          0          0
  vbounds          :     328454          0          0          0
Propagator Timings :  TotalTime  SetupTime   Presolve  Propagate    ResProp    SB-Prop
  dualfix          :       0.00       0.00       0.00       0.00       0.00       0.00
  genvbounds       :       2.22       0.00       0.00       2.21       0.00       0.00
  nlobbt           :       0.00       0.00       0.00       0.00       0.00       0.00
  obbt             :       1.46       0.00       0.00       1.46       0.00       0.00
  probing          :       0.02       0.00       0.02       0.00       0.00       0.00
  pseudoobj        :       5.59       0.00       0.00       5.59       0.00       0.00
  redcost          :      11.04       0.00       0.00      11.04       0.00       0.00
  rootredcost      :       0.28       0.00       0.00       0.27       0.00       0.00
  symmetry         :       0.15       0.00       0.00       0.14       0.00       0.00
  vbounds          :       0.55       0.00       0.00       0.55       0.00       0.01
Conflict Analysis  :       Time      Calls    Success    DomReds  Conflicts   Literals    Reconvs ReconvLits   Dualrays   Nonzeros   LP Iters   (pool size: [10000,10000])
  propagation      :       0.00        159        159          -        187        3.4         80        6.4          -          -          -
  infeasible LP    :       0.13        393        300          -        639       12.3        464        3.7        300        6.4          0
  bound exceed. LP :       1.83       4547        194          -          0        0.0          0        0.0        194       89.3          0
  strong branching :       0.00          0          0          -          0        0.0          0        0.0          -          -          0
  pseudo solution  :       0.00          0          0          -          0        0.0          0        0.0          -          -          -
  applied globally :       0.00          -          -          0        659        3.0          -          -        282          -          -
  applied locally  :          -          -          -          0        272       11.9          -          -        212          -          -
Separators         :   ExecTime  SetupTime      Calls  RootCalls    Cutoffs    DomReds  FoundCuts ViaPoolAdd  DirectAdd    Applied ViaPoolApp  DirectApp      Conss
  cut pool         :       0.37          -      86470        143          -          -       7628       7522          -          -          -          -          -    (maximal pool size:       1808)
  aggregation      :       5.12       0.00       4730         72          0          0       4082       4815          0       1805       1805          0          0
  > cmir           :          -          -          -          -          -          -          -       4138          0       1456       1456          0          -
  > flowcover      :          -          -          -          -          -          -          -        662          0        338        338          0          -
  > knapsackcover  :          -          -          -          -          -          -          -         15          0         11         11          0          -
  cgmip            :       0.00       0.00          0          0          0          0          0          0          0          0          0          0          0
  clique           :       0.00       0.00         72         72          0          0          0          0          0          0          0          0          0
  closecuts        :       0.00       0.00          0          0          0          0          0          0          0          0          0          0          0
  convexproj       :       0.00       0.00          0          0          0          0          0          0          0          0          0          0          0
  disjunctive      :       0.00       0.00          0          0          0          0          0          0          0          0          0          0          0
  eccuts           :       0.00       0.00          0          0          0          0          0          0          0          0          0          0          0
  gauge            :       0.00       0.00          0          0          0          0          0          0          0          0          0          0          0
  gomory           :       1.04       0.00       3275         10          0          0       1386        460          0        198        198          0          0
  > gomorymi       :          -          -          -          -          -          -          -        460          0        198        198          0          -
  > strongcg       :          -          -          -          -          -          -          -          0          0          0          0          0          -
  impliedbounds    :       0.20       0.00       4730         72          0          0       1508       1372          0        675        675          0          0
  interminor       :       0.00       0.00          0          0          0          0          0          0          0          0          0          0          0
  intobj           :       0.00       0.00          0          0          0          0          0          0          0          0          0          0          0
  mcf              :       0.00       0.00         10         10          0          0         35         10          1          1          0          1          0
  minor            :       0.63       0.00       4603         72          0          0      23209          0      23209      17659          0      17659          0
  mixing           :       0.36       0.00       4792         72          0          0        608        859          0        614        614          0          0
  oddcycle         :       0.00       0.00          0          0          0          0          0          0          0          0          0          0          0
  rapidlearning    :       0.04       0.00          0          0          0          0          0          0          0          0          0          0          0
  rlt              :       0.00       0.00         10         10          0          0          7          2          0          1          1          0          0
  zerohalf         :       1.24       0.00       3285         20          0          0          3          4          0          3          3          0          0
Cutselectors       :   ExecTime  SetupTime      Calls  RootCalls   Selected     Forced   Filtered  RootSelec   RootForc   RootFilt 
  hybrid           :       4.13       0.00     804154         75    8484540          0    1290744       1215          0       1837
Pricers            :   ExecTime  SetupTime      Calls       Vars
  problem variables:       0.00          -          0          0
Branching Rules    :   ExecTime  SetupTime   BranchLP  BranchExt   BranchPS    Cutoffs    DomReds       Cuts      Conss   Children
  allfullstrong    :       0.00       0.00          0          0          0          0          0          0          0          0
  cloud            :       0.00       0.00          0          0          0          0          0          0          0          0
  distribution     :       0.00       0.00          0          0          0          0          0          0          0          0
  fullstrong       :       0.00       0.00          0          0          0          0          0          0          0          0
  inference        :       0.00       0.00          0          0          0          0          0          0          0          0
  leastinf         :       0.00       0.00          0          0          0          0          0          0          0          0
  lookahead        :       0.00       0.00          0          0          0          0          0          0          0          0
  mostinf          :       0.00       0.00          0          0          0          0          0          0          0          0
  multaggr         :       0.00       0.00          0          0          0          0          0          0          0          0
  nodereopt        :       0.00       0.00          0          0          0          0          0          0          0          0
  pscost           :       0.00       0.00          0          0          0          0          0          0          0          0
  random           :       0.00       0.00          0          0          0          0          0          0          0          0
  relpscost        :      15.84       0.00      95639          0          0          0      68553          0         79     185504
  vanillafullstrong:       0.00       0.00          0          0          0          0          0          0          0          0
Primal Heuristics  :   ExecTime  SetupTime      Calls      Found       Best
  LP solutions     :       0.00          -          -          0          0
  relax solutions  :       0.00          -          -          0          0
  pseudo solutions :       0.00          -          -          0          0
  strong branching :       0.09          -          -          0          0
  actconsdiving    :       0.00       0.00          0          0          0
  adaptivediving   :       0.83       0.00        246          0          0
  alns             :      14.89       0.00         21          3          3
  bound            :       0.00       0.00          0          0          0
  clique           :       0.01       0.00          1          0          0
  coefdiving       :       0.00       0.00          0          0          0
  completesol      :       0.00       0.00          0          0          0
  conflictdiving   :       9.58       0.00      10390          0          0
  crossover        :      39.22       0.00          5          3          0
  dins             :       0.00       0.00          0          0          0
  distributiondivin:      78.97       0.00       2659          0          0
  dps              :       0.00       0.00          0          0          0
  dualval          :       0.00       0.00          0          0          0
  farkasdiving     :       0.01       0.00          0          0          0
  feaspump         :       0.80       0.00         58          0          0
  fixandinfer      :       0.00       0.00          0          0          0
  fracdiving       :       4.66       0.00      10549          0          0
  gins             :      23.51       0.00         22         14          1
  guideddiving     :      12.96       0.00       9957          0          0
  indicator        :       0.36       0.00          0          0          0
  indicatordiving  :       0.00       0.00          0          0          0
  intdiving        :       0.00       0.00          0          0          0
  intshifting      :       0.37       0.00        106          0          0
  linesearchdiving :      10.70       0.00       9961          0          0
  localbranching   :       0.00       0.00          0          0          0
  locks            :       0.01       0.00          1          0          0
  lpface           :       0.08       0.00          0          0          0
  mpec             :       4.97       0.00          1          0          0
  multistart       :       0.00       0.00          0          0          0
  mutation         :       0.00       0.00          0          0          0
  nlpdiving        :       2.04       0.00          2          0          0
  objpscostdiving  :      13.91       0.00       1329          0          0
  octane           :       0.00       0.00          0          0          0
  ofins            :       0.05       0.00          0          0          0
  oneopt           :       0.10       0.00          5          0          0
  padm             :       0.00       0.00          0          0          0
  proximity        :       0.00       0.00          0          0          0
  pscostdiving     :      15.54       0.00       2658          0          0
  randrounding     :       1.33       0.00      52612          0          0
  rens             :       2.98       0.00          1          1          1
  reoptsols        :       0.00       0.00          0          0          0
  repair           :       0.00       0.00          0          0          0
  rins             :       8.30       0.00         31          2          1
  rootsoldiving    :      17.51       0.00       1005          0          0
  rounding         :       0.87       0.00      10221          0          0
  shiftandpropagate:       0.01       0.00          1          0          0
  shifting         :       0.66       0.00       3319          0          0
  simplerounding   :       0.44       0.00          0          0          0
  subnlp           :       5.34       0.00         56          1          1
  trivial          :       0.00       0.00          2          0          0
  trivialnegation  :       0.00       0.00          0          0          0
  trustregion      :       0.00       0.00          0          0          0
  trysol           :       0.13       0.00          0          0          0
  twoopt           :       0.00       0.00          0          0          0
  undercover       :       0.05       0.00          1          0          0
  vbounds          :       0.00       0.00          0          0          0
  veclendiving     :       5.85       0.00      10311          0          0
  zeroobj          :       0.00       0.00          0          0          0
  zirounding       :       0.11       0.00       1000          0          0
  other solutions  :          -          -          -          0          -
Expressions        :   #IntEval  IntEvalTi   #RevProp  RevPropTi    DomReds    Cutoffs  #Estimate  EstimTime  Branching  #Simplify SimplifyTi Simplified
  pow              :    4699312       1.06     124993       0.08     120895          0   43080195       3.97    3946298        368       0.00          1
  prod             :    7512894       1.44      13956       0.01       2301         11   39867410       2.56    4983697        649       0.00         37
  sum              :   12212206       2.10   11560586       3.06    3586358       4735        390       0.00          0       1220       0.00        594
  var              :   26591749       1.33          0       0.00          0          0          0       0.00          0       2289       0.00        204
  varidx           :          0       0.00          0       0.00          0          0          0       0.00          0          0       0.00          0
Nlhdlrs            :    Detects  DetectAll DetectTime   #IntEval  IntEvalTi   #RevProp  RevPropTi    DomReds    Cutoffs   #Enforce   EnfoTime       Cuts  Branching
  soc              :          0          0       0.00          0       0.00          0       0.00          0          0          0       0.00          0          0
  convex           :          0          0       0.00          0       0.00          0       0.00          0          0          0       0.00          0          0
  concave          :          0          0       0.00          0       0.00          0       0.00          0          0          0       0.00          0          0
  signomial        :          0          0       0.00          0       0.00          0       0.00          0          0          0       0.00          0          0
  quotient         :          0          0       0.00          0       0.00          0       0.00          0          0          0       0.00          0          0
  quadratic        :          1         11       0.00      66332       0.14      66310       0.24      28978          0          0       0.00          0          0
  default          :       1320      14500       0.00   24421646       6.09   11701155      13.02    3709554       4796   82947605      78.40    9632485          0
  bilinear         :        162        162       0.00    5794531       1.01      13290       0.01        222          0   37797362       7.53     119290          0
  perspective      :        277        277       0.00          0       0.00          0       0.00       6695          0   61849010     141.08     688222      39801
LP                 :       Time      Calls Iterations  Iter/call   Iter/sec  Time-0-It Calls-0-It    ItLimit
  primal LP        :     363.20     151040          0       0.00       0.00     363.18     151040
  dual LP          :    1628.59    1031300   14785516      14.47    9078.74       9.52       9178
  lex dual LP      :       0.00          0          0       0.00          -
  barrier LP       :       0.00          0          0       0.00          -       0.00          0
  resolve instable :       0.00          0          0       0.00          -
  diving/probing LP:      65.27      29407     844280      28.71   12934.47
  strong branching :       5.33       3758     100888      26.85   18944.63          -          -       1734
    (at root node) :          -         23        956      41.57          -
  conflict analysis:       0.00          0          0       0.00          -
NLP relaxation     :
  solve time       :       2.02 (5 calls)
  convexity        :  nonconvex (543 linear rows, 0 convex ineq., 0 nonconvex ineq., 390 nonlinear eq. or two-sided ineq.)
NLP Solvers        :  #Problems  ProblemTi    #Solves  SolveTime      #Iter  Time/Iter      #Okay #TimeLimit #IterLimit #LObjLimit #Interrupt  #NumError #EvalError  #OutOfMem #LicenseEr #OtherTerm   #GlobOpt    #LocOpt  #Feasible #LocInfeas #GlobInfea #Unbounded   #Unknown
  ipopt            :         59       4.29         65       9.42       2083       0.00         63          0          2          0          0          0          0          0          0          0          0         58          1          3          0          0          3
B&B Tree           :
  number of runs   :          1
  nodes            :     158195 (152100 internal, 6095 leaves)
  feasible leaves  :          0
  infeas. leaves   :       2111
  objective leaves :       3984
  nodes (total)    :     158195 (152100 internal, 6095 leaves)
  nodes left       :     146006
  max depth        :         35
  max depth (total):         35
  backtracks       :      30692 (19.4%)
  early backtracks :          0 (0.0%)
  nodes exc. ref.  :          0 (0.0%)
  delayed cutoffs  :          0
  repropagations   :        141 (1861 domain reductions, 0 cutoffs)
  avg switch length:       7.16
  switching time   :     496.68
Root Node          :
  First LP value   : +0.00000000000000e+00
  First LP Iters   :        184 (15343.56 Iter/sec)
  First LP Time    :       0.01
  Final Dual Bound : +2.61932381020310e+01
  Final Root Iters :       4686
  Root LP Estimate : +3.67948886695706e+02
Solution           :
  Solutions found  :         24 (7 improvements)
  First Solution   : +4.23434262993301e+02   (in run 1, after 1 nodes, 0.30 seconds, depth 0, found by <feaspump>)
  Gap First Sol.   :   infinite
  Gap Last Sol.    :     366.11 %
  Primal Bound     : +2.88361912075644e+02   (in run 1, after 921 nodes, 37.13 seconds, depth 20, found by <alns>)
  Dual Bound       : +1.32217755947125e+02
  Gap              :     118.10 %
Integrals          :      Total       Avg%
  primal-dual      :  212228.05      58.95
  primal-ref       :          -          - (not evaluated)
  dual-ref         :          -          - (not evaluated)
